
Gurobi 9.5.1 (linux64) logging started Sun Jun 19 11:06:00 2022

Set parameter LogFile to value "../results/logs/log_CA-CondMat_4_2_2022_06_19_11_04.log"
Gurobi Optimizer version 9.5.1 build v9.5.1rc2 (linux64)
Thread count: 8 physical cores, 8 logical processors, using up to 8 threads
Optimize a model with 2359 rows, 46266 columns and 24914 nonzeros
Model fingerprint: 0x4115c052
Variable types: 0 continuous, 46266 integer (46266 binary)
Coefficient statistics:
  Matrix range     [1e+00, 4e+00]
  Objective range  [1e+00, 1e+00]
  Bounds range     [1e+00, 1e+00]
  RHS range        [1e+00, 2e+00]
Found heuristic solution: objective 13464.000000
Presolve removed 1293 rows and 44654 columns
Presolve time: 0.10s
Presolved: 1066 rows, 1612 columns, 5260 nonzeros
Found heuristic solution: objective 13467.000000
Variable types: 0 continuous, 1612 integer (1437 binary)

Root relaxation: objective 1.360079e+04, 569 iterations, 0.00 seconds (0.00 work units)

    Nodes    |    Current Node    |     Objective Bounds      |     Work
 Expl Unexpl |  Obj  Depth IntInf | Incumbent    BestBd   Gap | It/Node Time

     0     0 13600.7940    0  148 13467.0000 13600.7940  0.99%     -    0s
H    0     0                    13469.000000 13600.7940  0.98%     -    0s
H    0     0                    13470.000000 13600.7940  0.97%     -    0s
H    0     0                    13472.000000 13600.7940  0.96%     -    0s
H    0     0                    13474.000000 13597.8030  0.92%     -    0s
H    0     0                    13475.000000 13481.5923  0.05%     -    0s
     0     0 13480.2847    0   28 13475.0000 13480.2847  0.04%     -    0s
H    0     0                    13476.000000 13480.0333  0.03%     -    0s
     0     0 13479.7222    0   23 13476.0000 13479.7222  0.03%     -    0s
     0     0 13479.5000    0   22 13476.0000 13479.5000  0.03%     -    0s
     0     0 13479.5000    0   23 13476.0000 13479.5000  0.03%     -    0s
     0     0     cutoff    0      13476.0000 13476.0000  0.00%     -    0s

Cutting planes:
  Gomory: 68
  Cover: 12
  Implied bound: 2
  MIR: 75
  StrongCG: 11
  GUB cover: 62
  Zero half: 10
  RLT: 17

Explored 1 nodes (816 simplex iterations) in 0.24 seconds (0.16 work units)
Thread count was 8 (of 8 available processors)

Solution count 8: 13476 13475 13474 ... 13464

Optimal solution found (tolerance 0.00e+00)
Best objective 1.347600000000e+04, best bound 1.347600000000e+04, gap 0.0000%
